20190630 1467788.03 1467788.03
20180629 1467800.00 696500.00
20170706 1223156.69 580381.72
20161229 873683.35 354327.50
20160630 873683.35 50704.52
20160415 436841.68 20489.36
20151229 411589.15 20489.36
